Route #1: 1 42 32 10 39 5 47 40
Route #2: 1 48 36 37 46 22 6 9 12 21 38 24
Route #3: 1 30 2 14 27 23
Route #4: 1 35 50 41 18 49 33 3
Route #5: 1 7 16 29 45 20 13 34
Route #6: 1 26 19 15 44 25 28 17 11 43 4 31
Route #7: 1 8
cost 864
